(declare-rel fail ())
(declare-rel inv2 (Int Int Int Int Int Int Int))
(declare-var A Int)
(declare-var B Int)
(declare-var C Int)
(declare-var D Int)
(declare-var E Int)
(declare-var F Int)
(declare-var G Int)
(declare-var H Int)
(declare-var I Int)
(rule (=> (and (= I C) (= H 0) (= C (* 10000 A)) (= D A) (= C (* 10000 A)) (= 5 A))
    (inv2 I H C D C A A)))
(rule (let ((a!1 (and (inv2 I H C D C A A)
                (= F (ite (>= H I) (+ I D) I))
                (= G (ite (>= H I) H (+ H 1))))))
  (=> a!1 (inv2 F G C D C A A))))
(rule (let ((a!1 (and (inv2 I H C D C A A) (> H C) (not (<= (- I H) D)))))
  (=> a!1 fail)))
(query fail)

